peakDumbCharging = 11100; 
Machine = anon_enum(16); 
machineSpeed = [3700,3700,3700,3700,3700,3700,3700,3700,3700,3700,3700,3700,3700,3700,3700,3700]; 
machineLoad = [3700,3700,3700,3700,3700,3700,3700,3700,3700,3700,3700,3700,3700,3700,3700,3700]; 
Car = anon_enum(7); 
demandCar = [12320,5800,6360,13680,4000,9960,27160]; 
arrivalCar = [72,68,64,57,50,49,49]; 
departureCar = [76,71,67,61,53,54,59]; 
